DIMENSION :20
NODE_COORD_SECTION
1 -65.93330619750284 -68.52921142131565
2 97.4996185333718 -18.43342988459979
3 52.3757042774011 16.995160598115945
4 33.32530862746469 -71.85615062214373
5 19.68683256930241 98.01726701663188
6 -50.233081354185316 42.78135082245362
7 66.99669187976042 48.98760172922613
8 62.83336178883684 -69.06057152392158
9 -57.973092041391226 -15.178347582008627
10 -94.50782288511243 54.88386943936911
11 0.47372956346818285 -71.31270967263353
12 -31.4336253845874 11.35688411088114
13 -13.315713410685376 1.7154439880367818
14 67.10835459131391 5.527426541078427
15 98.7606767405434 12.887133509453292
16 -23.04089745368391 -31.287695931097176
17 -97.18031925470596 48.63925371592066
18 -78.4475773824688 -20.72640212669812
19 12.112396437210123 14.270254806352938
20 5.625737861822742 -10.73803178595945
EOF
